17266
8793
8276
8151
24833
13707
21769
18153
9845
23543
14310
80
11881
9437
18073
5418
11976
2866
8358
2406
18449
30491
12061
20587
20123
22147
13058
30883
9846
5005
19664
9745
10389
2450
26731
23532
8110
30288
9783
32349
16283
935
26512
8777
6801
13970
18958
1977
14518
28409
9984
6562
5524
23648
20334
30864
28332
4739
2157
19675
20590
26464
21705
6151
8290
5672
18115
23459
14786
9888
86
11422
20881
4552
1078
32245
4847
3060
31822
5313
14474
4873
16970
5265
29624
16686
13882
16503
30380
19549
11466
10630
10686
1721
1036
22156
12821
13832
21985
10984
